c Standarized MaxSat Instance
c{
c "sha1sum": "df5dd913d1f0d69be98f5711929b60bbf9445c66",
c "nvars": 64,
c "ncls": 384,
c "total_lits": 768,
c "nhards": 0,
c "nhard_nlits": 0,
c "nhard_len_stats":
c    { "min": 0,
c      "max": 0,
c      "ave": 0.0000,
c      "stddev": 0.0000 },
c "nsofts": 384,
c "nsoft_nlits": 768,
c "nsoft_len_stats":
c    { "min": 2,
c      "max": 2,
c      "ave": 2.0000,
c      "stddev": 0.0000 },
c "nsoft_wts": 1,
c "soft_wt_stats":
c    { "min": 1,
c      "max": 1,
c      "ave": 1.0000,
c      "stddev": 0.0000 }
c}
c------------------------------------------------------------
1 1 -2 0
1 -1 2 0
1 2 3 0
1 -2 -3 0
1 3 -4 0
1 -3 4 0
1 4 1 0
1 -4 -1 0
1 5 -6 0
1 -5 6 0
1 6 -7 0
1 -6 7 0
1 7 8 0
1 -7 -8 0
1 8 5 0
1 -8 -5 0
1 9 10 0
1 -9 -10 0
1 10 11 0
1 -10 -11 0
1 11 12 0
1 -11 -12 0
1 12 9 0
1 -12 -9 0
1 13 -14 0
1 -13 14 0
1 14 -15 0
1 -14 15 0
1 15 -16 0
1 -15 16 0
1 16 -13 0
1 -16 13 0
1 1 5 0
1 -1 -5 0
1 2 6 0
1 -2 -6 0
1 3 -7 0
1 -3 7 0
1 4 8 0
1 -4 -8 0
1 5 9 0
1 -5 -9 0
1 6 -10 0
1 -6 10 0
1 7 -11 0
1 -7 11 0
1 8 12 0
1 -8 -12 0
1 9 13 0
1 -9 -13 0
1 10 -14 0
1 -10 14 0
1 11 15 0
1 -11 -15 0
1 12 16 0
1 -12 -16 0
1 13 -1 0
1 -13 1 0
1 14 2 0
1 -14 -2 0
1 15 3 0
1 -15 -3 0
1 16 -4 0
1 -16 4 0
1 1 -17 0
1 -1 17 0
1 2 -18 0
1 -2 18 0
1 3 19 0
1 -3 -19 0
1 4 20 0
1 -4 -20 0
1 5 -21 0
1 -5 21 0
1 6 22 0
1 -6 -22 0
1 7 -23 0
1 -7 23 0
1 8 -24 0
1 -8 24 0
1 9 -25 0
1 -9 25 0
1 10 -26 0
1 -10 26 0
1 11 27 0
1 -11 -27 0
1 12 28 0
1 -12 -28 0
1 13 -29 0
1 -13 29 0
1 14 30 0
1 -14 -30 0
1 15 31 0
1 -15 -31 0
1 16 -32 0
1 -16 32 0
1 17 -18 0
1 -17 18 0
1 18 -19 0
1 -18 19 0
1 19 -20 0
1 -19 20 0
1 20 -17 0
1 -20 17 0
1 21 -22 0
1 -21 22 0
1 22 23 0
1 -22 -23 0
1 23 24 0
1 -23 -24 0
1 24 21 0
1 -24 -21 0
1 25 26 0
1 -25 -26 0
1 26 -27 0
1 -26 27 0
1 27 28 0
1 -27 -28 0
1 28 25 0
1 -28 -25 0
1 29 -30 0
1 -29 30 0
1 30 -31 0
1 -30 31 0
1 31 32 0
1 -31 -32 0
1 32 29 0
1 -32 -29 0
1 17 -21 0
1 -17 21 0
1 18 -22 0
1 -18 22 0
1 19 23 0
1 -19 -23 0
1 20 -24 0
1 -20 24 0
1 21 -25 0
1 -21 25 0
1 22 -26 0
1 -22 26 0
1 23 27 0
1 -23 -27 0
1 24 -28 0
1 -24 28 0
1 25 29 0
1 -25 -29 0
1 26 -30 0
1 -26 30 0
1 27 31 0
1 -27 -31 0
1 28 32 0
1 -28 -32 0
1 29 17 0
1 -29 -17 0
1 30 18 0
1 -30 -18 0
1 31 19 0
1 -31 -19 0
1 32 -20 0
1 -32 20 0
1 17 -33 0
1 -17 33 0
1 18 -34 0
1 -18 34 0
1 19 35 0
1 -19 -35 0
1 20 -36 0
1 -20 36 0
1 21 37 0
1 -21 -37 0
1 22 -38 0
1 -22 38 0
1 23 -39 0
1 -23 39 0
1 24 -40 0
1 -24 40 0
1 25 41 0
1 -25 -41 0
1 26 -42 0
1 -26 42 0
1 27 -43 0
1 -27 43 0
1 28 -44 0
1 -28 44 0
1 29 45 0
1 -29 -45 0
1 30 -46 0
1 -30 46 0
1 31 47 0
1 -31 -47 0
1 32 48 0
1 -32 -48 0
1 33 34 0
1 -33 -34 0
1 34 -35 0
1 -34 35 0
1 35 36 0
1 -35 -36 0
1 36 -33 0
1 -36 33 0
1 37 38 0
1 -37 -38 0
1 38 -39 0
1 -38 39 0
1 39 40 0
1 -39 -40 0
1 40 37 0
1 -40 -37 0
1 41 -42 0
1 -41 42 0
1 42 43 0
1 -42 -43 0
1 43 -44 0
1 -43 44 0
1 44 41 0
1 -44 -41 0
1 45 -46 0
1 -45 46 0
1 46 47 0
1 -46 -47 0
1 47 48 0
1 -47 -48 0
1 48 45 0
1 -48 -45 0
1 33 -37 0
1 -33 37 0
1 34 38 0
1 -34 -38 0
1 35 -39 0
1 -35 39 0
1 36 40 0
1 -36 -40 0
1 37 -41 0
1 -37 41 0
1 38 42 0
1 -38 -42 0
1 39 -43 0
1 -39 43 0
1 40 -44 0
1 -40 44 0
1 41 45 0
1 -41 -45 0
1 42 46 0
1 -42 -46 0
1 43 -47 0
1 -43 47 0
1 44 -48 0
1 -44 48 0
1 45 33 0
1 -45 -33 0
1 46 -34 0
1 -46 34 0
1 47 -35 0
1 -47 35 0
1 48 -36 0
1 -48 36 0
1 33 -49 0
1 -33 49 0
1 34 50 0
1 -34 -50 0
1 35 -51 0
1 -35 51 0
1 36 52 0
1 -36 -52 0
1 37 53 0
1 -37 -53 0
1 38 54 0
1 -38 -54 0
1 39 55 0
1 -39 -55 0
1 40 -56 0
1 -40 56 0
1 41 57 0
1 -41 -57 0
1 42 58 0
1 -42 -58 0
1 43 -59 0
1 -43 59 0
1 44 60 0
1 -44 -60 0
1 45 61 0
1 -45 -61 0
1 46 62 0
1 -46 -62 0
1 47 63 0
1 -47 -63 0
1 48 -64 0
1 -48 64 0
1 49 -50 0
1 -49 50 0
1 50 51 0
1 -50 -51 0
1 51 -52 0
1 -51 52 0
1 52 49 0
1 -52 -49 0
1 53 -54 0
1 -53 54 0
1 54 55 0
1 -54 -55 0
1 55 56 0
1 -55 -56 0
1 56 -53 0
1 -56 53 0
1 57 58 0
1 -57 -58 0
1 58 -59 0
1 -58 59 0
1 59 -60 0
1 -59 60 0
1 60 57 0
1 -60 -57 0
1 61 -62 0
1 -61 62 0
1 62 -63 0
1 -62 63 0
1 63 -64 0
1 -63 64 0
1 64 61 0
1 -64 -61 0
1 49 -53 0
1 -49 53 0
1 50 54 0
1 -50 -54 0
1 51 -55 0
1 -51 55 0
1 52 56 0
1 -52 -56 0
1 53 -57 0
1 -53 57 0
1 54 -58 0
1 -54 58 0
1 55 -59 0
1 -55 59 0
1 56 -60 0
1 -56 60 0
1 57 61 0
1 -57 -61 0
1 58 -62 0
1 -58 62 0
1 59 63 0
1 -59 -63 0
1 60 -64 0
1 -60 64 0
1 61 -49 0
1 -61 49 0
1 62 50 0
1 -62 -50 0
1 63 -51 0
1 -63 51 0
1 64 52 0
1 -64 -52 0
1 49 1 0
1 -49 -1 0
1 50 2 0
1 -50 -2 0
1 51 3 0
1 -51 -3 0
1 52 -4 0
1 -52 4 0
1 53 5 0
1 -53 -5 0
1 54 -6 0
1 -54 6 0
1 55 7 0
1 -55 -7 0
1 56 -8 0
1 -56 8 0
1 57 9 0
1 -57 -9 0
1 58 10 0
1 -58 -10 0
1 59 11 0
1 -59 -11 0
1 60 -12 0
1 -60 12 0
1 61 -13 0
1 -61 13 0
1 62 -14 0
1 -62 14 0
1 63 15 0
1 -63 -15 0
1 64 -16 0
1 -64 16 0
